/* Objective function */
min: - 0.0054fpdi - 0.0054fpdo + 0.05apdi + 0.05apdo + 0.0002pi + 0.0002po - 0.5fsi - 0.5fso;

apdi = 0.0 hi + 0.0 li + 12.81971 ri + -0.01751 ci + -1.9338 si + 0.0 ti + 0.1161 fTempIi + 0.01803 ami + -155.21622;
asi = 0.0 hi + 0.0 li + 0.0 ri + -0.0 ci + 0.0 si + 0.0 ti + -0.0 fTempIi + 0.00017 ami + -0.00286;
aTempOi = 0.0 hi + 0.0 li + 0.28761 ri + -0.11679 ci + -0.04946 si + -0.0 ti + 0.77979 fTempIi + -0.00053 ami + 6.94783;
fpdi = 0.0 hi + -0.0 li + 9.95669 ri + -28.15541 ci + -0.02093 si + 0.0 ti + -0.54313 fTempIi + 0.00021 ami + 282.98242;
fsi = 0.0 hi + -0.0 li + -4e-05 ri + -0.11007 ci + 1e-05 si + -0.0 ti + 0.00019 fTempIi + -0.0 ami + 2.05276;
fTempOi = 0.0 hi + 0.0 li + -0.28413 ri + 0.11641 ci + 0.04849 si + -0.0 ti + 0.24314 fTempIi + -0.00045 ami + 9.64682;
pi = 0.0 hi + 0.0 li + 156.84167 ri + 4.01143 ci + -16.15429 si + 0.0 ti + -0.0 fTempIi + 0.0 ami + 505.16048;

apdo = 0.0 ho + -0.0 lo + 12.98082 ro + 0.02336 co + -2.33127 so + 0.0 to + 0.13991 fTempIo + 0.02217 amo + -190.47413;
aso = 0.0 ho + 0.0 lo + 0.0 ro + 0.0 co + 0.0 so + -0.0 to + -0.0 fTempIo + 0.00017 amo + -0.00286;
aTempOo = 0.0 ho + -0.0 lo + -0.22338 ro + 0.10959 co + 0.04867 so + 0.0 to + 0.77559 fTempIo + 0.00057 amo + -1.38116;
fpdo = 0.0 ho + 0.0 lo + 9.71161 ro + -33.61175 co + 0.02588 so + 0.0 to + -0.65319 fTempIo + -0.00028 amo + 336.09478;
fso = 0.0 ho + 0.0 lo + 2e-05 ro + -0.11016 co + -0.0 so + 0.0 to + 0.00011 fTempIo + 0.0 amo + 2.05438;
fTempOo = 0.0 ho + -0.0 lo + 0.22176 ro + -0.1114 co + -0.04837 so + 0.0 to + 0.24065 fTempIo + 0.00052 amo + 12.91928;
po = 0.0 ho + -0.0 lo + 134.22222 ro + 3.51111 co + -12.72778 so + 0.0 to + -0.0 fTempIo + -0.0 amo + 497.61667;

/* Variable bounds */
aTempOi > 18.6;
1 =r6i + r8i + r10i + r12i + r14i;
ri =6r6i + 8r8i + 10r10i + 12r12i + 14r14i;
1 =s25i + s30i + s40i;
si =25s25i + 30s30i + 40s40i;
ti = 1;
apdi > 100;
apdi < 300;
asi > 0;
asi < 3;
aTempOi > 5;
aTempOi < 25;
fpdi > 100;
fpdi < 300;
fsi > 0;
fsi < 1.25;
fTempOi > 5;
fTempOi < 25;
pi > 0;
ri > 6;
ri < 14;
ci > 7;
ci < 60;
si > 25;
si < 60;
ti > 1;
ti < 3;
fTempIi > 5;
fTempIi < 25;

/* aTempOo < 11.4; */
1 =r6o + r8o + r10o + r12o + r14o;
ro =6r6o + 8r8o + 10r10o + 12r12o + 14r14o;
1 =s25o + s30o + s40o;
so =25s25o + 30s30o + 40s40o;
to = 2;
apdo > 100;
apdo < 300;
aso > 0;
aso < 3;
aTempOo > 5;
aTempOo < 25;
fpdo > 100;
fpdo < 300;
fso > 0;
fso < 1.25;
fTempOo > 5;
fTempOo < 25;
po > 0;
ro > 10;
ro < 14;
co > 7;
co < 60;
so > 25;
so < 60;
to > 1;
to < 3;
fTempIo > 5;
fTempIo < 25;
int hi,li,si,ti,ci,ri,ami;
int ho,lo,so,to,co,ro,amo;
bin s25i,s30i,s40i,s50i,s60i,r6i,r8i,r10i,r12i,r14i;
bin s25o,s30o,s40o,s50o,s60o,r6o,r8o,r10o,r12o,r14o;
